NAME : ../File/prFile/tspFile/tsp_file37.tsp.487.tour
COMMENT : Length = 487
COMMENT : Found by LKH-3 [Keld Helsgaun] Wed Jun 14 16:16:50 2023
TYPE : TOUR
DIMENSION : 30
TOUR_SECTION
1
3
10
19
13
24
15
7
29
21
28
5
16
23
26
27
8
4
2
22
17
12
6
25
9
30
18
14
20
11
-1
EOF
